<?xml version = "1.0" standalone="yes"?>
<!-- This file has been generated by DOcplex version 2.23.222  -->
<CPLEXSolution version="1.0">
 <header
   problemName="CVRP"
   objectiveValue="18111.1"
  />
 <variables>
  <variable name="x_0_1" index="0" value="1.00000"/>
  <variable name="x_0_2" index="1" value="1.00000"/>
  <variable name="x_0_3" index="2" value="1.00000"/>
  <variable name="x_0_4" index="3" value="1.00000"/>
  <variable name="x_0_5" index="4" value="1.00000"/>
  <variable name="x_0_8" index="7" value="1.00000"/>
  <variable name="x_0_10" index="9" value="1.00000"/>
  <variable name="x_0_12" index="11" value="1.00000"/>
  <variable name="x_0_13" index="12" value="1.00000"/>
  <variable name="x_0_14" index="13" value="1.00000"/>
  <variable name="x_0_15" index="14" value="1.00000"/>
  <variable name="x_0_16" index="15" value="1.00000"/>
  <variable name="x_0_19" index="18" value="1.00000"/>
  <variable name="x_0_20" index="19" value="1.00000"/>
  <variable name="x_0_21" index="20" value="1.00000"/>
  <variable name="x_0_23" index="22" value="1.00000"/>
  <variable name="x_0_25" index="24" value="1.00000"/>
  <variable name="x_0_26" index="25" value="1.00000"/>
  <variable name="x_0_27" index="26" value="1.00000"/>
  <variable name="x_1_0" index="28" value="1.00000"/>
  <variable name="x_2_0" index="56" value="1.00000"/>
  <variable name="x_3_0" index="84" value="1.00000"/>
  <variable name="x_4_11" index="122" value="1.00000"/>
  <variable name="x_5_0" index="140" value="1.00000"/>
  <variable name="x_6_24" index="191" value="1.00000"/>
  <variable name="x_7_0" index="196" value="1.00000"/>
  <variable name="x_8_28" index="251" value="1.00000"/>
  <variable name="x_9_0" index="252" value="1.00000"/>
  <variable name="x_10_22" index="301" value="1.00000"/>
  <variable name="x_11_0" index="308" value="1.00000"/>
  <variable name="x_12_0" index="336" value="1.00000"/>
  <variable name="x_13_7" index="371" value="1.00000"/>
  <variable name="x_14_0" index="392" value="1.00000"/>
  <variable name="x_15_17" index="436" value="1.00000"/>
  <variable name="x_16_0" index="448" value="1.00000"/>
  <variable name="x_17_0" index="476" value="1.00000"/>
  <variable name="x_18_0" index="504" value="1.00000"/>
  <variable name="x_19_0" index="532" value="1.00000"/>
  <variable name="x_20_6" index="566" value="1.00000"/>
  <variable name="x_21_0" index="588" value="1.00000"/>
  <variable name="x_22_0" index="616" value="1.00000"/>
  <variable name="x_23_0" index="644" value="1.00000"/>
  <variable name="x_24_9" index="681" value="1.00000"/>
  <variable name="x_25_18" index="718" value="1.00000"/>
  <variable name="x_26_0" index="728" value="1.00000"/>
  <variable name="x_27_0" index="756" value="1.00000"/>
  <variable name="x_28_0" index="784" value="1.00000"/>
  <variable name="u_1" index="812" value="25.00000"/>
  <variable name="u_2" index="813" value="43.00000"/>
  <variable name="u_3" index="814" value="37.00000"/>
  <variable name="u_4" index="815" value="21.00000"/>
  <variable name="u_5" index="816" value="41.00000"/>
  <variable name="u_6" index="817" value="10.00000"/>
  <variable name="u_7" index="818" value="43.00000"/>
  <variable name="u_8" index="819" value="14.00000"/>
  <variable name="u_9" index="820" value="43.00000"/>
  <variable name="u_10" index="821" value="9.00000"/>
  <variable name="u_11" index="822" value="41.00000"/>
  <variable name="u_12" index="823" value="34.00000"/>
  <variable name="u_13" index="824" value="17.00000"/>
  <variable name="u_14" index="825" value="24.00000"/>
  <variable name="u_15" index="826" value="33.00000"/>
  <variable name="u_16" index="827" value="43.00000"/>
  <variable name="u_17" index="828" value="43.00000"/>
  <variable name="u_18" index="829" value="43.00000"/>
  <variable name="u_19" index="830" value="41.00000"/>
  <variable name="u_20" index="831" value="5.00000"/>
  <variable name="u_21" index="832" value="40.00000"/>
  <variable name="u_22" index="833" value="33.00000"/>
  <variable name="u_23" index="834" value="43.00000"/>
  <variable name="u_24" index="835" value="14.00000"/>
  <variable name="u_25" index="836" value="14.00000"/>
  <variable name="u_26" index="837" value="43.00000"/>
  <variable name="u_27" index="838" value="43.00000"/>
  <variable name="u_28" index="839" value="39.00000"/>
 </variables>
</CPLEXSolution>
